c nIsolatedPIs 6
c maxPI 26
p cnf 125 298
c gate 27 -5 -18 0
-5 -27 0
-18 -27 0
5 18 27 0
c gate 28 1 14 0
1 -28 0
14 -28 0
-1 -14 28 0
c gate 29 -27 28 0
-27 -29 0
28 -29 0
27 -28 29 0
c gate 30 6 19 0
6 -30 0
19 -30 0
-6 -19 30 0
c gate 31 5 18 0
5 -31 0
18 -31 0
-5 -18 31 0
c gate 32 -30 -31 0
-30 -32 0
-31 -32 0
30 31 32 0
c gate 33 -29 32 0
-29 -33 0
32 -33 0
29 -32 33 0
c gate 34 -7 -20 0
-7 -34 0
-20 -34 0
7 20 34 0
c gate 35 -6 -19 0
-6 -35 0
-19 -35 0
6 19 35 0
c gate 36 -34 -35 0
-34 -36 0
-35 -36 0
34 35 36 0
c gate 37 -33 36 0
-33 -37 0
36 -37 0
33 -36 37 0
c gate 38 8 21 0
8 -38 0
21 -38 0
-8 -21 38 0
c gate 39 7 20 0
7 -39 0
20 -39 0
-7 -20 39 0
c gate 40 -38 -39 0
-38 -40 0
-39 -40 0
38 39 40 0
c gate 41 -37 40 0
-37 -41 0
40 -41 0
37 -40 41 0
c gate 42 -9 -22 0
-9 -42 0
-22 -42 0
9 22 42 0
c gate 43 -8 -21 0
-8 -43 0
-21 -43 0
8 21 43 0
c gate 44 -42 -43 0
-42 -44 0
-43 -44 0
42 43 44 0
c gate 45 -41 44 0
-41 -45 0
44 -45 0
41 -44 45 0
c gate 46 9 22 0
9 -46 0
22 -46 0
-9 -22 46 0
c gate 47 10 23 0
10 -47 0
23 -47 0
-10 -23 47 0
c gate 48 -46 -47 0
-46 -48 0
-47 -48 0
46 47 48 0
c gate 49 -45 48 0
-45 -49 0
48 -49 0
45 -48 49 0
c gate 50 -10 -23 0
-10 -50 0
-23 -50 0
10 23 50 0
c gate 51 -11 -24 0
-11 -51 0
-24 -51 0
11 24 51 0
c gate 52 -50 -51 0
-50 -52 0
-51 -52 0
50 51 52 0
c gate 53 -49 52 0
-49 -53 0
52 -53 0
49 -52 53 0
c gate 54 11 24 0
11 -54 0
24 -54 0
-11 -24 54 0
c gate 55 12 25 0
12 -55 0
25 -55 0
-12 -25 55 0
c gate 56 -54 -55 0
-54 -56 0
-55 -56 0
54 55 56 0
c gate 57 -53 56 0
-53 -57 0
56 -57 0
53 -56 57 0
c gate 58 -12 -25 0
-12 -58 0
-25 -58 0
12 25 58 0
c gate 59 -13 -26 0
-13 -59 0
-26 -59 0
13 26 59 0
c gate 60 -58 -59 0
-58 -60 0
-59 -60 0
58 59 60 0
c gate 61 -57 60 0
-57 -61 0
60 -61 0
57 -60 61 0
c gate 62 2 15 0
2 -62 0
15 -62 0
-2 -15 62 0
c gate 63 13 26 0
13 -63 0
26 -63 0
-13 -26 63 0
c gate 64 -62 -63 0
-62 -64 0
-63 -64 0
62 63 64 0
c gate 65 -61 64 0
-61 -65 0
64 -65 0
61 -64 65 0
c gate 66 -3 -16 0
-3 -66 0
-16 -66 0
3 16 66 0
c gate 67 -2 -15 0
-2 -67 0
-15 -67 0
2 15 67 0
c gate 68 3 16 0
3 -68 0
16 -68 0
-3 -16 68 0
c gate 69 -67 -68 0
-67 -69 0
-68 -69 0
67 68 69 0
c gate 70 -66 69 0
-66 -70 0
69 -70 0
66 -69 70 0
c gate 71 -65 70 0
-65 -71 0
70 -71 0
65 -70 71 0
c gate 72 9 -22 0
9 -72 0
-22 -72 0
-9 22 72 0
c gate 73 10 -23 0
10 -73 0
-23 -73 0
-10 23 73 0
c gate 74 -72 -73 0
-72 -74 0
-73 -74 0
72 73 74 0
c gate 75 -5 18 0
-5 -75 0
18 -75 0
5 -18 75 0
c gate 76 -1 14 0
-1 -76 0
14 -76 0
1 -14 76 0
c gate 77 -75 -76 0
-75 -77 0
-76 -77 0
75 76 77 0
c gate 78 6 -19 0
6 -78 0
-19 -78 0
-6 19 78 0
c gate 79 5 -18 0
5 -79 0
-18 -79 0
-5 18 79 0
c gate 80 -78 -79 0
-78 -80 0
-79 -80 0
78 79 80 0
c gate 81 -77 80 0
-77 -81 0
80 -81 0
77 -80 81 0
c gate 82 -7 20 0
-7 -82 0
20 -82 0
7 -20 82 0
c gate 83 -6 19 0
-6 -83 0
19 -83 0
6 -19 83 0
c gate 84 -82 -83 0
-82 -84 0
-83 -84 0
82 83 84 0
c gate 85 -81 84 0
-81 -85 0
84 -85 0
81 -84 85 0
c gate 86 -38 -43 0
-38 -86 0
-43 -86 0
38 43 86 0
c gate 87 7 -20 0
7 -87 0
-20 -87 0
-7 20 87 0
c gate 88 -86 -87 0
-86 -88 0
-87 -88 0
86 87 88 0
c gate 89 -85 88 0
-85 -89 0
88 -89 0
85 -88 89 0
c gate 90 -42 -46 0
-42 -90 0
-46 -90 0
42 46 90 0
c gate 91 -8 21 0
-8 -91 0
21 -91 0
8 -21 91 0
c gate 92 -90 -91 0
-90 -92 0
-91 -92 0
90 91 92 0
c gate 93 -89 92 0
-89 -93 0
92 -93 0
89 -92 93 0
c gate 94 74 -93 0
74 -94 0
-93 -94 0
-74 93 94 0
c gate 95 -12 25 0
-12 -95 0
25 -95 0
12 -25 95 0
c gate 96 -13 26 0
-13 -96 0
26 -96 0
13 -26 96 0
c gate 97 -95 -96 0
-95 -97 0
-96 -97 0
95 96 97 0
c gate 98 -11 24 0
-11 -98 0
24 -98 0
11 -24 98 0
c gate 99 -10 23 0
-10 -99 0
23 -99 0
10 -23 99 0
c gate 100 -98 -99 0
-98 -100 0
-99 -100 0
98 99 100 0
c gate 101 97 100 0
97 -101 0
100 -101 0
-97 -100 101 0
c gate 102 -94 101 0
-94 -102 0
101 -102 0
94 -101 102 0
c gate 103 11 -24 0
11 -103 0
-24 -103 0
-11 24 103 0
c gate 104 12 -25 0
12 -104 0
-25 -104 0
-12 25 104 0
c gate 105 -103 -104 0
-103 -105 0
-104 -105 0
103 104 105 0
c gate 106 97 -105 0
97 -106 0
-105 -106 0
-97 105 106 0
c gate 107 13 -26 0
13 -107 0
-26 -107 0
-13 26 107 0
c gate 108 -62 -67 0
-62 -108 0
-67 -108 0
62 67 108 0
c gate 109 -107 108 0
-107 -109 0
108 -109 0
107 -108 109 0
c gate 110 -106 109 0
-106 -110 0
109 -110 0
106 -109 110 0
c gate 111 102 110 0
102 -111 0
110 -111 0
-102 -110 111 0
c gate 112 -106 -107 0
-106 -112 0
-107 -112 0
106 107 112 0
c gate 113 -109 112 0
-109 -113 0
112 -113 0
109 -112 113 0
c gate 114 -102 113 0
-102 -114 0
113 -114 0
102 -113 114 0
c gate 115 49 -50 0
49 -115 0
-50 -115 0
-49 50 115 0
c gate 116 -74 -103 0
-74 -116 0
-103 -116 0
74 103 116 0
c gate 117 100 116 0
100 -117 0
116 -117 0
-100 -116 117 0
c gate 118 -4 -17 0
-4 -118 0
-17 -118 0
4 17 118 0
c gate 119 68 118 0
68 -119 0
118 -119 0
-68 -118 119 0
c gate 120 -117 -119 0
-117 -120 0
-119 -120 0
117 119 120 0
c gate 121 -93 120 0
-93 -121 0
120 -121 0
93 -120 121 0
c gate 122 -115 121 0
-115 -122 0
121 -122 0
115 -121 122 0
c gate 123 -114 122 0
-114 -123 0
122 -123 0
114 -122 123 0
c gate 124 -111 123 0
-111 -124 0
123 -124 0
111 -123 124 0
c gate 125 -71 124 0
-71 -125 0
124 -125 0
71 -124 125 0
c PO
-125 0
